c "764469.clq"
p edge 204 3008
e 1 17
e 1 18
e 1 19
e 1 20
e 1 21
e 1 22
e 1 23
e 1 24
e 1 26
e 1 31
e 1 34
e 1 35
e 1 36
e 1 42
e 1 54
e 1 57
e 1 69
e 1 89
e 1 93
e 1 101
e 1 109
e 1 117
e 1 123
e 1 124
e 1 129
e 1 133
e 1 134
e 1 145
e 1 151
e 1 154
e 1 158
e 1 159
e 2 17
e 2 18
e 2 19
e 2 20
e 2 21
e 2 23
e 2 32
e 2 37
e 2 39
e 2 42
e 2 45
e 2 46
e 2 47
e 2 49
e 2 53
e 2 57
e 2 61
e 2 65
e 2 78
e 2 80
e 2 85
e 2 92
e 2 97
e 2 103
e 2 104
e 2 108
e 2 111
e 2 120
e 2 121
e 2 142
e 2 146
e 2 164
e 2 179
e 2 183
e 2 185
e 2 187
e 2 200
e 3 17
e 3 18
e 3 19
e 3 20
e 3 21
e 3 22
e 3 24
e 3 25
e 3 26
e 3 27
e 3 29
e 3 30
e 3 32
e 3 37
e 3 39
e 3 41
e 3 43
e 3 45
e 3 47
e 3 50
e 3 53
e 3 56
e 3 57
e 3 58
e 3 59
e 3 62
e 3 71
e 3 75
e 3 77
e 3 80
e 3 81
e 3 86
e 3 87
e 3 98
e 3 99
e 3 126
e 3 127
e 3 129
e 3 138
e 3 141
e 3 144
e 3 145
e 3 152
e 3 157
e 3 158
e 3 166
e 3 180
e 3 192
e 4 17
e 4 18
e 4 19
e 4 20
e 4 21
e 4 22
e 4 23
e 4 25
e 4 26
e 4 27
e 4 29
e 4 30
e 4 32
e 4 33
e 4 36
e 4 37
e 4 38
e 4 40
e 4 44
e 4 49
e 4 55
e 4 56
e 4 65
e 4 67
e 4 70
e 4 77
e 4 79
e 4 82
e 4 96
e 4 101
e 4 107
e 4 110
e 4 117
e 4 119
e 4 123
e 4 127
e 5 17
e 5 18
e 5 19
e 5 21
e 5 22
e 5 23
e 5 24
e 5 25
e 5 27
e 5 28
e 5 32
e 5 34
e 5 39
e 5 40
e 5 42
e 5 45
e 5 75
e 5 78
e 5 79
e 5 80
e 5 85
e 5 90
e 5 96
e 5 98
e 5 102
e 5 119
e 5 171
e 5 193
e 5 195
e 5 202
e 6 17
e 6 18
e 6 19
e 6 20
e 6 21
e 6 23
e 6 24
e 6 30
e 6 41
e 6 50
e 6 54
e 6 56
e 6 58
e 6 65
e 6 66
e 6 85
e 6 93
e 6 94
e 6 96
e 6 97
e 6 106
e 6 108
e 6 124
e 6 128
e 6 139
e 6 162
e 6 174
e 6 176
e 6 180
e 7 17
e 7 20
e 7 21
e 7 24
e 7 30
e 7 33
e 7 58
e 7 62
e 7 69
e 7 85
e 7 89
e 7 91
e 7 109
e 7 117
e 7 119
e 7 132
e 7 133
e 7 141
e 7 166
e 7 198
e 8 17
e 8 18
e 8 19
e 8 20
e 8 21
e 8 22
e 8 23
e 8 24
e 8 26
e 8 48
e 8 51
e 8 53
e 8 63
e 8 67
e 8 68
e 8 72
e 8 76
e 8 79
e 8 81
e 8 83
e 8 88
e 8 90
e 8 94
e 8 102
e 8 112
e 8 113
e 8 117
e 8 135
e 8 138
e 8 161
e 8 167
e 8 169
e 8 178
e 8 184
e 8 190
e 9 17
e 9 18
e 9 19
e 9 20
e 9 23
e 9 25
e 9 27
e 9 28
e 9 29
e 9 30
e 9 33
e 9 35
e 9 36
e 9 39
e 9 40
e 9 43
e 9 45
e 9 49
e 9 50
e 9 53
e 9 55
e 9 58
e 9 72
e 9 88
e 9 90
e 9 97
e 9 103
e 9 108
e 9 110
e 9 118
e 9 133
e 9 139
e 9 142
e 9 146
e 9 151
e 9 169
e 9 170
e 9 181
e 9 198
e 10 17
e 10 18
e 10 19
e 10 21
e 10 22
e 10 25
e 10 26
e 10 32
e 10 36
e 10 39
e 10 49
e 10 50
e 10 53
e 10 62
e 10 66
e 10 72
e 10 89
e 10 117
e 10 126
e 10 130
e 10 145
e 10 151
e 10 162
e 10 172
e 10 190
e 10 191
e 10 200
e 11 17
e 11 18
e 11 19
e 11 20
e 11 22
e 11 23
e 11 28
e 11 29
e 11 31
e 11 32
e 11 34
e 11 78
e 11 89
e 11 93
e 11 96
e 11 114
e 11 123
e 11 150
e 11 158
e 11 159
e 11 183
e 11 189
e 11 190
e 11 193
e 12 17
e 12 18
e 12 19
e 12 20
e 12 21
e 12 22
e 12 23
e 12 24
e 12 25
e 12 26
e 12 28
e 12 30
e 12 32
e 12 33
e 12 38
e 12 40
e 12 42
e 12 44
e 12 54
e 12 56
e 12 71
e 12 77
e 12 81
e 12 84
e 12 88
e 12 100
e 12 105
e 12 111
e 12 125
e 12 146
e 12 153
e 12 160
e 12 174
e 12 185
e 12 196
e 12 199
e 13 17
e 13 18
e 13 19
e 13 21
e 13 24
e 13 27
e 13 31
e 13 39
e 13 41
e 13 42
e 13 43
e 13 44
e 13 58
e 13 68
e 13 74
e 13 81
e 13 97
e 13 98
e 13 109
e 13 124
e 13 136
e 13 141
e 13 146
e 13 156
e 13 158
e 13 163
e 13 171
e 13 187
e 14 17
e 14 18
e 14 20
e 14 22
e 14 30
e 14 32
e 14 33
e 14 35
e 14 37
e 14 41
e 14 61
e 14 62
e 14 64
e 14 81
e 14 88
e 14 95
e 14 97
e 14 103
e 14 105
e 14 115
e 14 117
e 14 131
e 14 132
e 14 134
e 14 141
e 14 143
e 14 156
e 14 176
e 14 179
e 15 17
e 15 18
e 15 19
e 15 20
e 15 21
e 15 22
e 15 23
e 15 24
e 15 25
e 15 26
e 15 27
e 15 28
e 15 29
e 15 34
e 15 35
e 15 37
e 15 40
e 15 42
e 15 43
e 15 46
e 15 52
e 15 57
e 15 63
e 15 65
e 15 67
e 15 78
e 15 79
e 15 92
e 15 94
e 15 95
e 15 104
e 15 107
e 15 121
e 15 126
e 15 127
e 15 140
e 15 144
e 15 150
e 15 158
e 15 174
e 15 195
e 16 17
e 16 18
e 16 19
e 16 20
e 16 22
e 16 23
e 16 25
e 16 26
e 16 27
e 16 28
e 16 31
e 16 32
e 16 34
e 16 37
e 16 38
e 16 41
e 16 45
e 16 51
e 16 55
e 16 58
e 16 63
e 16 68
e 16 71
e 16 72
e 16 75
e 16 81
e 16 88
e 16 89
e 16 91
e 16 93
e 16 104
e 16 120
e 16 121
e 16 140
e 16 150
e 16 153
e 16 172
e 16 183
e 16 200
e 16 201
e 17 18
e 17 19
e 17 20
e 17 21
e 17 22
e 17 23
e 17 24
e 17 25
e 17 26
e 17 27
e 17 28
e 17 29
e 17 30
e 17 31
e 17 32
e 17 33
e 17 34
e 17 35
e 17 36
e 17 37
e 17 38
e 17 39
e 17 42
e 17 43
e 17 45
e 17 46
e 17 48
e 17 50
e 17 51
e 17 52
e 17 53
e 17 54
e 17 55
e 17 58
e 17 62
e 17 64
e 17 65
e 17 67
e 17 69
e 17 71
e 17 74
e 17 75
e 17 78
e 17 80
e 17 86
e 17 89
e 17 95
e 17 96
e 17 97
e 17 98
e 17 99
e 17 100
e 17 102
e 17 103
e 17 104
e 17 109
e 17 110
e 17 111
e 17 114
e 17 115
e 17 116
e 17 125
e 17 127
e 17 128
e 17 134
e 17 135
e 17 139
e 17 149
e 17 150
e 17 155
e 17 161
e 17 174
e 17 179
e 17 180
e 17 182
e 17 190
e 17 192
e 17 195
e 17 197
e 17 199
e 17 202
e 18 19
e 18 20
e 18 21
e 18 22
e 18 24
e 18 25
e 18 26
e 18 27
e 18 28
e 18 29
e 18 31
e 18 33
e 18 34
e 18 35
e 18 36
e 18 38
e 18 40
e 18 41
e 18 42
e 18 43
e 18 45
e 18 46
e 18 47
e 18 49
e 18 51
e 18 58
e 18 63
e 18 66
e 18 68
e 18 76
e 18 77
e 18 82
e 18 83
e 18 84
e 18 85
e 18 86
e 18 104
e 18 109
e 18 115
e 18 123
e 18 125
e 18 126
e 18 137
e 18 142
e 18 143
e 18 151
e 18 156
e 18 159
e 18 167
e 18 173
e 18 180
e 18 182
e 18 184
e 19 20
e 19 21
e 19 22
e 19 23
e 19 24
e 19 25
e 19 26
e 19 27
e 19 28
e 19 29
e 19 31
e 19 32
e 19 33
e 19 34
e 19 35
e 19 37
e 19 38
e 19 39
e 19 40
e 19 41
e 19 43
e 19 44
e 19 45
e 19 47
e 19 48
e 19 49
e 19 50
e 19 51
e 19 53
e 19 54
e 19 57
e 19 60
e 19 66
e 19 67
e 19 68
e 19 73
e 19 75
e 19 77
e 19 79
e 19 86
e 19 88
e 19 91
e 19 93
e 19 96
e 19 97
e 19 101
e 19 102
e 19 111
e 19 114
e 19 115
e 19 119
e 19 120
e 19 127
e 19 130
e 19 133
e 19 134
e 19 136
e 19 153
e 19 156
e 19 160
e 19 162
e 19 166
e 19 169
e 19 179
e 19 189
e 19 192
e 20 21
e 20 22
e 20 23
e 20 24
e 20 25
e 20 26
e 20 27
e 20 28
e 20 29
e 20 30
e 20 33
e 20 34
e 20 35
e 20 36
e 20 39
e 20 40
e 20 41
e 20 42
e 20 43
e 20 44
e 20 45
e 20 46
e 20 47
e 20 48
e 20 49
e 20 52
e 20 53
e 20 54
e 20 59
e 20 60
e 20 61
e 20 72
e 20 82
e 20 83
e 20 84
e 20 86
e 20 90
e 20 92
e 20 97
e 20 99
e 20 100
e 20 105
e 20 108
e 20 109
e 20 114
e 20 119
e 20 125
e 20 136
e 20 138
e 20 143
e 20 145
e 20 146
e 20 147
e 20 154
e 20 155
e 20 161
e 20 166
e 20 170
e 20 173
e 20 174
e 20 178
e 20 182
e 20 185
e 20 196
e 20 199
e 21 22
e 21 23
e 21 24
e 21 25
e 21 26
e 21 27
e 21 28
e 21 29
e 21 30
e 21 33
e 21 35
e 21 36
e 21 40
e 21 41
e 21 42
e 21 47
e 21 48
e 21 49
e 21 52
e 21 53
e 21 55
e 21 57
e 21 58
e 21 59
e 21 60
e 21 61
e 21 64
e 21 65
e 21 70
e 21 72
e 21 73
e 21 74
e 21 77
e 21 78
e 21 79
e 21 81
e 21 83
e 21 86
e 21 87
e 21 89
e 21 91
e 21 93
e 21 97
e 21 98
e 21 100
e 21 108
e 21 110
e 21 112
e 21 115
e 21 120
e 21 121
e 21 122
e 21 125
e 21 133
e 21 136
e 21 137
e 21 141
e 21 145
e 21 147
e 21 150
e 21 152
e 21 160
e 21 164
e 21 170
e 21 173
e 21 178
e 21 190
e 21 192
e 21 193
e 21 196
e 21 199
e 21 202
e 22 23
e 22 24
e 22 25
e 22 26
e 22 27
e 22 28
e 22 29
e 22 30
e 22 31
e 22 33
e 22 34
e 22 35
e 22 36
e 22 37
e 22 38
e 22 40
e 22 41
e 22 43
e 22 47
e 22 48
e 22 49
e 22 51
e 22 53
e 22 56
e 22 57
e 22 58
e 22 62
e 22 65
e 22 68
e 22 69
e 22 72
e 22 80
e 22 85
e 22 87
e 22 91
e 22 98
e 22 101
e 22 104
e 22 106
e 22 112
e 22 116
e 22 120
e 22 126
e 22 137
e 22 150
e 22 153
e 22 159
e 22 162
e 22 164
e 22 172
e 22 175
e 22 188
e 22 196
e 22 203
e 22 204
e 23 24
e 23 25
e 23 26
e 23 27
e 23 28
e 23 29
e 23 30
e 23 31
e 23 32
e 23 33
e 23 34
e 23 35
e 23 36
e 23 37
e 23 38
e 23 39
e 23 40
e 23 41
e 23 42
e 23 43
e 23 44
e 23 45
e 23 47
e 23 49
e 23 50
e 23 52
e 23 55
e 23 56
e 23 57
e 23 59
e 23 60
e 23 61
e 23 64
e 23 65
e 23 66
e 23 67
e 23 68
e 23 69
e 23 70
e 23 71
e 23 72
e 23 74
e 23 78
e 23 80
e 23 81
e 23 83
e 23 85
e 23 86
e 23 87
e 23 89
e 23 96
e 23 100
e 23 101
e 23 103
e 23 105
e 23 107
e 23 108
e 23 109
e 23 110
e 23 113
e 23 115
e 23 118
e 23 121
e 23 127
e 23 131
e 23 132
e 23 141
e 23 142
e 23 143
e 23 144
e 23 148
e 23 151
e 23 157
e 23 161
e 23 162
e 23 167
e 23 168
e 23 175
e 23 180
e 23 181
e 23 182
e 23 187
e 23 188
e 23 191
e 23 192
e 23 194
e 23 197
e 23 203
e 24 25
e 24 27
e 24 28
e 24 29
e 24 30
e 24 31
e 24 32
e 24 33
e 24 34
e 24 36
e 24 38
e 24 41
e 24 47
e 24 48
e 24 52
e 24 59
e 24 61
e 24 62
e 24 65
e 24 66
e 24 67
e 24 68
e 24 71
e 24 72
e 24 74
e 24 76
e 24 78
e 24 82
e 24 86
e 24 93
e 24 96
e 24 112
e 24 114
e 24 115
e 24 131
e 24 148
e 24 149
e 24 153
e 24 154
e 24 157
e 24 162
e 24 165
e 24 170
e 24 194
e 25 26
e 25 29
e 25 31
e 25 32
e 25 34
e 25 35
e 25 37
e 25 39
e 25 40
e 25 41
e 25 42
e 25 44
e 25 46
e 25 47
e 25 48
e 25 49
e 25 50
e 25 51
e 25 52
e 25 56
e 25 57
e 25 59
e 25 60
e 25 61
e 25 64
e 25 66
e 25 67
e 25 73
e 25 79
e 25 83
e 25 91
e 25 92
e 25 93
e 25 96
e 25 99
e 25 101
e 25 103
e 25 106
e 25 107
e 25 111
e 25 116
e 25 118
e 25 119
e 25 120
e 25 122
e 25 125
e 25 131
e 25 132
e 25 135
e 25 136
e 25 139
e 25 141
e 25 145
e 25 152
e 25 155
e 25 156
e 25 159
e 25 160
e 25 164
e 25 165
e 25 175
e 25 179
e 25 184
e 25 194
e 25 199
e 25 200
e 26 27
e 26 28
e 26 30
e 26 31
e 26 34
e 26 35
e 26 36
e 26 37
e 26 38
e 26 44
e 26 46
e 26 47
e 26 55
e 26 56
e 26 60
e 26 64
e 26 65
e 26 66
e 26 67
e 26 68
e 26 69
e 26 70
e 26 72
e 26 74
e 26 76
e 26 82
e 26 85
e 26 100
e 26 110
e 26 114
e 26 124
e 26 126
e 26 130
e 26 131
e 26 137
e 26 148
e 26 149
e 26 150
e 26 151
e 26 160
e 26 161
e 26 163
e 26 165
e 26 179
e 26 183
e 26 187
e 26 190
e 26 202
e 27 28
e 27 29
e 27 30
e 27 31
e 27 32
e 27 33
e 27 34
e 27 38
e 27 44
e 27 45
e 27 49
e 27 52
e 27 54
e 27 59
e 27 60
e 27 61
e 27 63
e 27 64
e 27 65
e 27 66
e 27 73
e 27 84
e 27 87
e 27 92
e 27 95
e 27 98
e 27 102
e 27 105
e 27 106
e 27 107
e 27 111
e 27 112
e 27 124
e 27 127
e 27 129
e 27 133
e 27 135
e 27 137
e 27 143
e 27 145
e 27 154
e 27 159
e 27 160
e 27 162
e 27 163
e 27 164
e 27 165
e 27 167
e 27 183
e 27 184
e 27 186
e 27 189
e 27 194
e 27 196
e 27 197
e 27 201
e 27 202
e 27 204
e 28 29
e 28 30
e 28 31
e 28 38
e 28 41
e 28 45
e 28 47
e 28 48
e 28 50
e 28 51
e 28 52
e 28 60
e 28 62
e 28 63
e 28 69
e 28 71
e 28 95
e 28 107
e 28 123
e 28 130
e 28 142
e 28 150
e 28 153
e 28 173
e 28 177
e 28 195
e 28 204
e 29 31
e 29 33
e 29 36
e 29 38
e 29 39
e 29 42
e 29 43
e 29 46
e 29 51
e 29 52
e 29 56
e 29 58
e 29 60
e 29 69
e 29 72
e 29 81
e 29 90
e 29 99
e 29 102
e 29 113
e 29 114
e 29 118
e 29 130
e 29 132
e 29 136
e 29 149
e 29 164
e 29 165
e 29 168
e 29 181
e 29 184
e 29 185
e 29 186
e 29 196
e 29 200
e 30 31
e 30 32
e 30 35
e 30 36
e 30 37
e 30 41
e 30 43
e 30 44
e 30 47
e 30 53
e 30 54
e 30 55
e 30 56
e 30 62
e 30 63
e 30 70
e 30 74
e 30 86
e 30 98
e 30 111
e 30 116
e 30 125
e 30 127
e 30 134
e 30 140
e 30 147
e 30 163
e 30 165
e 30 166
e 30 172
e 30 184
e 30 188
e 30 193
e 30 194
e 31 33
e 31 36
e 31 38
e 31 40
e 31 42
e 31 44
e 31 45
e 31 46
e 31 48
e 31 50
e 31 52
e 31 53
e 31 55
e 31 59
e 31 64
e 31 69
e 31 70
e 31 71
e 31 73
e 31 76
e 31 83
e 31 94
e 31 98
e 31 102
e 31 109
e 31 116
e 31 122
e 31 128
e 31 132
e 31 146
e 31 148
e 31 149
e 31 156
e 31 162
e 31 163
e 31 167
e 31 170
e 31 177
e 31 181
e 31 186
e 31 189
e 31 193
e 32 37
e 32 43
e 32 48
e 32 53
e 32 56
e 32 60
e 32 73
e 32 80
e 32 84
e 32 88
e 32 97
e 32 98
e 32 101
e 32 105
e 32 107
e 32 109
e 32 112
e 32 121
e 32 123
e 32 124
e 32 131
e 32 136
e 32 143
e 32 150
e 32 152
e 32 163
e 32 169
e 32 181
e 32 184
e 32 191
e 32 204
e 33 34
e 33 35
e 33 36
e 33 37
e 33 39
e 33 44
e 33 46
e 33 48
e 33 50
e 33 52
e 33 55
e 33 57
e 33 59
e 33 61
e 33 68
e 33 70
e 33 73
e 33 75
e 33 78
e 33 79
e 33 83
e 33 84
e 33 91
e 33 95
e 33 106
e 33 111
e 33 114
e 33 120
e 33 136
e 33 137
e 33 138
e 33 139
e 33 147
e 33 163
e 33 170
e 33 182
e 33 188
e 33 191
e 33 194
e 33 199
e 33 201
e 33 202
e 34 35
e 34 39
e 34 42
e 34 46
e 34 55
e 34 56
e 34 61
e 34 63
e 34 64
e 34 69
e 34 73
e 34 74
e 34 78
e 34 83
e 34 85
e 34 96
e 34 101
e 34 105
e 34 119
e 34 120
e 34 140
e 34 141
e 34 145
e 34 149
e 34 166
e 34 170
e 34 195
e 34 202
e 35 37
e 35 38
e 35 39
e 35 40
e 35 42
e 35 43
e 35 46
e 35 48
e 35 49
e 35 50
e 35 51
e 35 56
e 35 57
e 35 62
e 35 67
e 35 68
e 35 78
e 35 80
e 35 82
e 35 86
e 35 88
e 35 92
e 35 93
e 35 94
e 35 104
e 35 111
e 35 118
e 35 129
e 35 154
e 35 165
e 35 179
e 35 180
e 35 183
e 35 187
e 35 192
e 35 193
e 35 197
e 36 39
e 36 40
e 36 41
e 36 44
e 36 46
e 36 61
e 36 64
e 36 66
e 36 67
e 36 75
e 36 78
e 36 81
e 36 87
e 36 101
e 36 102
e 36 111
e 36 121
e 36 122
e 36 126
e 36 139
e 36 140
e 36 152
e 36 153
e 36 156
e 36 157
e 36 169
e 36 172
e 36 178
e 37 38
e 37 44
e 37 48
e 37 51
e 37 57
e 37 58
e 37 61
e 37 67
e 37 70
e 37 76
e 37 80
e 37 82
e 37 83
e 37 88
e 37 93
e 37 96
e 37 97
e 37 98
e 37 99
e 37 101
e 37 103
e 37 105
e 37 107
e 37 108
e 37 112
e 37 113
e 37 114
e 37 117
e 37 118
e 37 129
e 37 136
e 37 139
e 37 142
e 37 147
e 37 153
e 37 157
e 37 162
e 37 169
e 37 170
e 37 172
e 37 176
e 37 189
e 37 200
e 38 40
e 38 45
e 38 47
e 38 48
e 38 51
e 38 54
e 38 56
e 38 61
e 38 69
e 38 71
e 38 76
e 38 78
e 38 104
e 38 113
e 38 135
e 38 147
e 38 157
e 38 166
e 38 187
e 38 188
e 38 203
e 39 43
e 39 47
e 39 49
e 39 53
e 39 56
e 39 63
e 39 65
e 39 73
e 39 77
e 39 78
e 39 82
e 39 84
e 39 89
e 39 104
e 39 105
e 39 115
e 39 119
e 39 122
e 39 126
e 39 135
e 39 145
e 39 175
e 39 183
e 39 198
e 40 43
e 40 44
e 40 50
e 40 54
e 40 64
e 40 66
e 40 70
e 40 74
e 40 75
e 40 82
e 40 84
e 40 87
e 40 94
e 40 95
e 40 100
e 40 104
e 40 119
e 40 125
e 40 127
e 40 129
e 40 130
e 40 131
e 40 132
e 40 135
e 40 136
e 40 151
e 40 152
e 40 160
e 40 161
e 40 170
e 40 185
e 40 192
e 40 203
e 41 46
e 41 47
e 41 51
e 41 53
e 41 55
e 41 57
e 41 60
e 41 64
e 41 70
e 41 77
e 41 79
e 41 80
e 41 82
e 41 83
e 41 88
e 41 90
e 41 100
e 41 109
e 41 116
e 41 117
e 41 129
e 41 137
e 41 142
e 41 143
e 41 154
e 41 155
e 41 156
e 41 160
e 41 162
e 41 173
e 41 177
e 41 188
e 41 193
e 42 45
e 42 46
e 42 50
e 42 51
e 42 54
e 42 62
e 42 64
e 42 66
e 42 67
e 42 68
e 42 80
e 42 85
e 42 91
e 42 93
e 42 94
e 42 112
e 42 113
e 42 118
e 42 122
e 42 126
e 42 129
e 42 130
e 42 135
e 42 136
e 42 137
e 42 146
e 42 152
e 42 162
e 42 168
e 42 175
e 42 176
e 42 177
e 42 180
e 42 187
e 42 196
e 42 197
e 42 201
e 42 202
e 43 44
e 43 49
e 43 55
e 43 71
e 43 76
e 43 83
e 43 84
e 43 85
e 43 90
e 43 97
e 43 112
e 43 115
e 43 119
e 43 133
e 43 135
e 43 144
e 43 167
e 43 200
e 44 45
e 44 46
e 44 48
e 44 51
e 44 57
e 44 62
e 44 63
e 44 66
e 44 69
e 44 71
e 44 78
e 44 79
e 44 88
e 44 94
e 44 108
e 44 114
e 44 132
e 44 150
e 44 157
e 44 167
e 44 178
e 44 182
e 44 185
e 44 187
e 44 201
e 45 51
e 45 52
e 45 54
e 45 58
e 45 63
e 45 67
e 45 74
e 45 75
e 45 85
e 45 87
e 45 94
e 45 99
e 45 101
e 45 104
e 45 106
e 45 108
e 45 110
e 45 112
e 45 116
e 45 120
e 45 121
e 45 127
e 45 129
e 45 131
e 45 132
e 45 138
e 45 150
e 45 154
e 45 164
e 45 165
e 45 175
e 45 180
e 45 189
e 45 191
e 45 192
e 45 193
e 46 49
e 46 50
e 46 59
e 46 60
e 46 70
e 46 85
e 46 86
e 46 90
e 46 92
e 46 103
e 46 107
e 46 116
e 46 117
e 46 130
e 46 131
e 46 133
e 46 137
e 46 139
e 46 144
e 46 152
e 46 154
e 46 155
e 46 170
e 46 171
e 46 181
e 46 190
e 46 201
e 47 50
e 47 52
e 47 61
e 47 67
e 47 69
e 47 73
e 47 87
e 47 91
e 47 96
e 47 97
e 47 103
e 47 110
e 47 111
e 47 135
e 47 153
e 47 157
e 47 172
e 47 177
e 47 184
e 47 185
e 47 194
e 47 198
e 47 203
e 48 52
e 48 54
e 48 55
e 48 57
e 48 58
e 48 59
e 48 60
e 48 62
e 48 64
e 48 75
e 48 87
e 48 92
e 48 105
e 48 110
e 48 122
e 48 137
e 48 145
e 48 151
e 48 163
e 48 166
e 48 170
e 48 171
e 48 182
e 48 185
e 48 187
e 48 204
e 49 54
e 49 59
e 49 60
e 49 62
e 49 63
e 49 68
e 49 69
e 49 70
e 49 87
e 49 88
e 49 95
e 49 106
e 49 118
e 49 128
e 49 130
e 49 133
e 49 134
e 49 138
e 49 145
e 49 151
e 49 162
e 49 163
e 49 170
e 49 174
e 49 181
e 49 189
e 49 192
e 49 201
e 50 53
e 50 54
e 50 56
e 50 59
e 50 61
e 50 62
e 50 70
e 50 73
e 50 76
e 50 79
e 50 81
e 50 82
e 50 92
e 50 94
e 50 122
e 50 123
e 50 127
e 50 138
e 50 183
e 50 186
e 50 188
e 50 196
e 50 199
e 50 200
e 50 201
e 51 52
e 51 55
e 51 60
e 51 63
e 51 66
e 51 71
e 51 74
e 51 86
e 51 91
e 51 92
e 51 120
e 51 134
e 51 144
e 51 148
e 51 149
e 51 173
e 51 181
e 51 183
e 51 187
e 51 201
e 52 54
e 52 57
e 52 58
e 52 59
e 52 66
e 52 69
e 52 72
e 52 77
e 52 89
e 52 90
e 52 92
e 52 93
e 52 95
e 52 96
e 52 99
e 52 102
e 52 106
e 52 113
e 52 115
e 52 119
e 52 123
e 52 138
e 52 141
e 52 148
e 52 153
e 52 154
e 52 155
e 52 157
e 52 168
e 52 174
e 52 182
e 52 190
e 52 191
e 52 195
e 52 196
e 53 58
e 53 60
e 53 65
e 53 76
e 53 88
e 53 105
e 53 117
e 53 120
e 53 131
e 53 137
e 53 143
e 53 168
e 53 176
e 53 181
e 53 185
e 53 193
e 53 194
e 53 199
e 54 55
e 54 59
e 54 61
e 54 63
e 54 65
e 54 70
e 54 71
e 54 76
e 54 84
e 54 87
e 54 95
e 54 103
e 54 106
e 54 115
e 54 128
e 54 132
e 54 167
e 54 172
e 54 176
e 54 179
e 54 189
e 54 192
e 54 193
e 54 203
e 55 62
e 55 65
e 55 69
e 55 74
e 55 80
e 55 90
e 55 95
e 55 100
e 55 117
e 55 125
e 55 129
e 55 135
e 55 138
e 55 160
e 55 171
e 55 179
e 56 66
e 56 77
e 56 80
e 56 90
e 56 91
e 56 92
e 56 103
e 56 105
e 56 109
e 56 114
e 56 116
e 56 122
e 56 124
e 56 127
e 56 128
e 56 131
e 56 135
e 56 139
e 56 148
e 56 158
e 56 161
e 56 167
e 56 169
e 56 174
e 56 197
e 56 199
e 56 200
e 57 64
e 57 72
e 57 76
e 57 84
e 57 86
e 57 87
e 57 109
e 57 116
e 57 127
e 57 129
e 57 131
e 57 134
e 57 144
e 57 149
e 57 151
e 57 171
e 57 175
e 57 191
e 57 202
e 57 203
e 57 204
e 58 59
e 58 63
e 58 65
e 58 68
e 58 70
e 58 87
e 58 89
e 58 92
e 58 96
e 58 100
e 58 101
e 58 111
e 58 121
e 58 138
e 58 148
e 58 162
e 58 163
e 58 175
e 58 177
e 58 178
e 58 191
e 58 203
e 59 71
e 59 73
e 59 77
e 59 87
e 59 91
e 59 97
e 59 99
e 59 108
e 59 110
e 59 113
e 59 116
e 59 122
e 59 124
e 59 125
e 59 126
e 59 128
e 59 132
e 59 133
e 59 137
e 59 139
e 59 140
e 59 143
e 59 146
e 59 163
e 59 164
e 59 172
e 59 179
e 59 193
e 59 197
e 60 63
e 60 68
e 60 70
e 60 71
e 60 73
e 60 75
e 60 81
e 60 102
e 60 107
e 60 110
e 60 117
e 60 123
e 60 125
e 60 128
e 60 136
e 60 143
e 60 156
e 60 159
e 60 168
e 60 175
e 60 178
e 60 181
e 60 191
e 60 193
e 61 68
e 61 75
e 61 76
e 61 77
e 61 88
e 61 99
e 61 103
e 61 104
e 61 106
e 61 113
e 61 114
e 61 125
e 61 128
e 61 137
e 61 165
e 62 64
e 62 75
e 62 79
e 62 82
e 62 94
e 62 100
e 62 111
e 62 121
e 62 123
e 62 138
e 62 141
e 62 173
e 62 193
e 63 67
e 63 73
e 63 75
e 63 85
e 63 101
e 63 107
e 63 112
e 63 119
e 63 120
e 63 147
e 63 187
e 64 72
e 64 79
e 64 94
e 64 98
e 64 99
e 64 113
e 64 115
e 64 123
e 64 125
e 64 126
e 64 140
e 64 144
e 64 175
e 64 187
e 64 192
e 65 72
e 65 80
e 65 82
e 65 95
e 65 97
e 65 107
e 65 108
e 65 131
e 65 163
e 65 169
e 65 175
e 65 176
e 65 183
e 65 195
e 66 74
e 66 82
e 66 93
e 66 99
e 66 100
e 66 117
e 66 126
e 66 142
e 66 147
e 66 150
e 66 173
e 66 179
e 66 196
e 66 203
e 67 76
e 67 77
e 67 79
e 67 84
e 67 89
e 67 100
e 67 102
e 67 112
e 67 114
e 67 118
e 67 124
e 67 130
e 67 156
e 67 161
e 67 162
e 67 164
e 67 168
e 67 190
e 67 192
e 67 202
e 68 71
e 68 77
e 68 80
e 68 81
e 68 89
e 68 91
e 68 103
e 68 105
e 68 106
e 68 107
e 68 113
e 68 118
e 68 122
e 68 126
e 68 134
e 68 137
e 68 141
e 68 147
e 68 149
e 68 166
e 68 185
e 68 201
e 69 72
e 69 73
e 69 74
e 69 75
e 69 83
e 69 86
e 69 89
e 69 94
e 69 102
e 69 107
e 69 108
e 69 139
e 69 149
e 69 159
e 69 164
e 69 170
e 69 203
e 70 76
e 70 78
e 70 84
e 70 92
e 70 93
e 70 94
e 70 101
e 70 113
e 70 124
e 70 130
e 70 138
e 70 144
e 70 171
e 70 175
e 70 182
e 70 187
e 70 188
e 71 74
e 71 75
e 71 79
e 71 84
e 71 90
e 71 106
e 71 118
e 71 119
e 71 125
e 71 141
e 71 164
e 71 165
e 71 173
e 71 194
e 71 197
e 71 201
e 71 204
e 72 73
e 72 74
e 72 82
e 72 84
e 72 85
e 72 91
e 72 93
e 72 98
e 72 104
e 72 105
e 72 138
e 72 146
e 72 160
e 72 169
e 72 189
e 72 201
e 73 121
e 73 128
e 73 130
e 73 139
e 73 147
e 73 154
e 73 180
e 73 200
e 74 77
e 74 79
e 74 81
e 74 98
e 74 99
e 74 109
e 74 124
e 74 144
e 74 146
e 74 148
e 74 155
e 74 159
e 74 176
e 74 177
e 74 194
e 75 76
e 75 77
e 75 80
e 75 81
e 75 89
e 75 91
e 75 95
e 75 101
e 75 109
e 75 110
e 75 112
e 75 116
e 75 119
e 75 129
e 75 131
e 75 132
e 75 138
e 75 144
e 75 145
e 75 148
e 75 167
e 75 171
e 75 184
e 75 186
e 75 191
e 75 197
e 76 82
e 76 84
e 76 87
e 76 92
e 76 97
e 76 101
e 76 103
e 76 106
e 76 111
e 76 117
e 76 119
e 76 148
e 76 151
e 76 152
e 76 154
e 76 166
e 76 174
e 76 179
e 77 83
e 77 90
e 77 103
e 77 113
e 77 147
e 77 157
e 77 166
e 77 181
e 77 182
e 78 90
e 78 100
e 78 102
e 78 109
e 78 113
e 78 118
e 78 122
e 78 132
e 78 134
e 78 161
e 78 163
e 78 167
e 78 168
e 78 172
e 78 195
e 79 92
e 79 99
e 79 116
e 79 122
e 79 130
e 79 149
e 79 165
e 79 170
e 79 172
e 80 81
e 80 83
e 80 85
e 80 90
e 80 93
e 80 102
e 80 109
e 80 110
e 80 114
e 80 120
e 80 123
e 80 143
e 80 153
e 80 171
e 80 178
e 80 198
e 80 203
e 81 86
e 81 88
e 81 121
e 81 135
e 81 140
e 81 154
e 81 166
e 81 167
e 81 174
e 81 177
e 81 184
e 81 197
e 82 83
e 82 99
e 82 106
e 82 130
e 82 132
e 82 140
e 82 149
e 82 152
e 82 198
e 83 86
e 83 98
e 83 104
e 83 116
e 83 122
e 83 130
e 83 135
e 83 139
e 83 162
e 83 175
e 83 183
e 83 185
e 83 190
e 83 202
e 84 94
e 84 95
e 84 104
e 84 118
e 84 144
e 84 146
e 84 150
e 84 157
e 84 177
e 84 196
e 84 204
e 85 105
e 85 112
e 85 155
e 85 156
e 85 157
e 85 168
e 85 187
e 86 89
e 86 91
e 86 95
e 86 100
e 86 116
e 86 124
e 86 131
e 86 135
e 86 149
e 86 158
e 86 161
e 86 164
e 86 165
e 86 171
e 86 177
e 86 193
e 86 198
e 87 88
e 87 117
e 87 121
e 87 128
e 87 140
e 87 152
e 87 169
e 87 183
e 87 189
e 87 204
e 88 95
e 88 110
e 88 118
e 88 145
e 88 157
e 88 159
e 88 173
e 88 198
e 89 90
e 89 107
e 89 108
e 89 112
e 89 114
e 89 133
e 89 152
e 89 167
e 89 200
e 90 104
e 90 107
e 90 115
e 90 117
e 90 121
e 90 123
e 90 141
e 90 145
e 90 148
e 90 171
e 90 177
e 90 178
e 90 185
e 90 195
e 91 100
e 91 120
e 91 122
e 91 128
e 91 132
e 91 133
e 91 143
e 91 155
e 91 168
e 91 177
e 91 195
e 91 197
e 91 204
e 92 96
e 92 122
e 92 138
e 92 152
e 92 165
e 92 171
e 93 94
e 93 98
e 93 103
e 93 111
e 93 120
e 93 127
e 93 146
e 93 181
e 93 182
e 93 195
e 94 96
e 94 99
e 94 102
e 94 108
e 94 113
e 94 123
e 94 139
e 94 143
e 94 146
e 94 147
e 94 148
e 94 150
e 94 169
e 94 175
e 94 179
e 95 113
e 95 115
e 95 124
e 95 129
e 95 141
e 95 145
e 95 159
e 95 173
e 96 102
e 96 158
e 96 172
e 96 194
e 97 180
e 97 185
e 98 110
e 98 124
e 98 127
e 98 140
e 98 155
e 98 166
e 98 173
e 98 188
e 98 190
e 98 191
e 99 105
e 99 125
e 99 172
e 100 141
e 100 143
e 100 154
e 100 156
e 100 161
e 100 180
e 100 182
e 101 114
e 101 115
e 101 133
e 101 134
e 101 136
e 101 147
e 101 172
e 101 188
e 101 203
e 102 136
e 102 146
e 102 150
e 102 158
e 102 159
e 102 169
e 102 176
e 102 186
e 102 191
e 103 106
e 103 112
e 103 146
e 103 172
e 103 182
e 103 186
e 103 199
e 104 108
e 104 129
e 104 149
e 104 151
e 104 203
e 105 106
e 106 120
e 106 123
e 106 134
e 106 142
e 106 148
e 106 156
e 106 198
e 107 108
e 107 111
e 107 115
e 107 137
e 107 139
e 107 147
e 107 177
e 107 179
e 107 190
e 107 193
e 108 118
e 108 125
e 108 126
e 108 128
e 108 163
e 108 171
e 108 175
e 108 178
e 108 182
e 108 199
e 109 110
e 109 155
e 109 194
e 109 197
e 109 199
e 110 128
e 110 133
e 110 140
e 110 142
e 110 151
e 110 161
e 110 167
e 110 176
e 110 190
e 110 196
e 111 126
e 111 127
e 111 128
e 111 154
e 111 156
e 111 158
e 111 159
e 111 168
e 111 171
e 111 173
e 111 186
e 111 195
e 111 202
e 112 154
e 112 174
e 112 200
e 113 124
e 113 130
e 113 139
e 113 140
e 113 147
e 113 151
e 113 152
e 113 153
e 113 161
e 113 165
e 113 168
e 113 177
e 113 178
e 113 198
e 113 202
e 114 116
e 114 118
e 114 134
e 114 155
e 114 174
e 114 186
e 114 188
e 114 189
e 115 129
e 115 132
e 115 141
e 115 151
e 115 160
e 115 161
e 116 144
e 117 119
e 117 123
e 117 134
e 117 138
e 117 142
e 117 143
e 117 144
e 117 148
e 117 155
e 117 156
e 117 176
e 117 195
e 117 197
e 117 202
e 118 121
e 118 140
e 118 153
e 118 180
e 118 187
e 118 188
e 118 189
e 119 121
e 119 158
e 119 163
e 120 129
e 120 140
e 120 153
e 120 154
e 120 158
e 121 134
e 121 155
e 121 167
e 121 204
e 122 124
e 122 128
e 122 160
e 122 169
e 122 182
e 122 185
e 123 126
e 123 140
e 123 142
e 123 186
e 124 131
e 124 133
e 124 144
e 124 165
e 124 169
e 124 180
e 124 203
e 125 161
e 125 166
e 125 169
e 125 184
e 125 186
e 126 178
e 127 169
e 127 182
e 127 197
e 128 158
e 128 177
e 128 201
e 129 133
e 129 143
e 129 171
e 129 188
e 129 198
e 130 134
e 130 148
e 130 152
e 130 168
e 130 184
e 130 195
e 131 136
e 131 156
e 131 202
e 133 135
e 133 137
e 133 173
e 133 181
e 133 188
e 133 189
e 133 192
e 134 153
e 134 158
e 135 136
e 135 144
e 135 193
e 135 196
e 135 197
e 136 142
e 136 176
e 136 192
e 136 201
e 136 204
e 137 142
e 137 153
e 137 183
e 137 188
e 138 142
e 138 146
e 138 149
e 138 163
e 138 181
e 138 186
e 139 142
e 139 145
e 139 152
e 139 160
e 139 164
e 139 172
e 139 174
e 139 179
e 139 204
e 140 147
e 140 183
e 141 157
e 141 168
e 141 178
e 141 184
e 141 200
e 142 150
e 142 160
e 142 162
e 142 192
e 142 203
e 143 149
e 143 155
e 143 157
e 143 158
e 143 178
e 144 158
e 144 183
e 144 197
e 144 198
e 145 170
e 145 173
e 145 181
e 145 198
e 146 159
e 146 166
e 146 176
e 146 177
e 146 183
e 146 191
e 146 194
e 146 198
e 147 168
e 147 181
e 147 191
e 147 194
e 148 164
e 148 174
e 148 175
e 148 186
e 148 189
e 149 151
e 149 195
e 150 155
e 150 161
e 150 164
e 150 180
e 150 189
e 151 171
e 151 199
e 152 176
e 152 185
e 152 189
e 153 160
e 153 167
e 153 179
e 153 202
e 154 157
e 154 170
e 154 188
e 154 196
e 155 159
e 155 164
e 155 165
e 155 174
e 155 184
e 155 200
e 156 191
e 156 201
e 156 204
e 157 185
e 158 159
e 158 160
e 158 190
e 158 195
e 160 204
e 161 166
e 161 178
e 161 187
e 162 203
e 163 198
e 164 173
e 164 184
e 165 168
e 166 194
e 167 180
e 167 194
e 167 200
e 168 176
e 168 184
e 170 174
e 170 176
e 170 178
e 170 192
e 171 180
e 171 191
e 172 186
e 178 199
e 178 200
e 179 190
e 179 199
e 182 186
e 183 186
e 184 196
e 185 199
e 187 196
e 189 190
e 195 204
e 197 198
e 199 201
